c FILE /home/rafael/Documents/HappySet/MIHS/inputs/happygen/output/graph_d_regular_k5_p0.4_v100_20241127_084049.txt
c SOURCE This is a d-regular graph formed for the happy graph colouring problem.
c DESCRIPTION It was generated using the problem generator of Rhyd Lewis
c
c GRAPH STATS
c Seed                             = 954135317
c Number of Nodes                  = 100
c Number of colours k              = 5
c Number of pre-assignments        = 40
c Degree of all vertices           = 6
c Density                          = 0.0606061
c 
c The degrees of nodes 1 to 100, respectively, are as follows 
c [6, 6, 6, 6, 6, 6, 6, 6, 6, 6, 6, 6, 6, 6, 6, 6, 6, 6, 6, 6, 6, 6, 6, 6, 6, 6, 
c  6, 6, 6, 6, 6, 6, 6, 6, 6, 6, 6, 6, 6, 6, 6, 6, 6, 6, 6, 6, 6, 6, 6, 6, 6, 
c  6, 6, 6, 6, 6, 6, 6, 6, 6, 6, 6, 6, 6, 6, 6, 6, 6, 6, 6, 6, 6, 6, 6, 6, 6, 
c  6, 6, 6, 6, 6, 6, 6, 6, 6, 6, 6, 6, 6, 6, 6, 6, 6, 6, 6, 6, 6, 6, 6, 6] 
c  
p edge 100 300 5
e 1 2
e 1 13
e 1 34
e 1 38
e 1 64
e 1 89
e 2 8
e 2 42
e 2 45
e 2 74
e 2 87
e 3 44
e 3 77
e 3 82
e 3 84
e 3 96
e 3 97
e 4 5
e 4 34
e 4 84
e 4 85
e 4 87
e 4 92
e 5 22
e 5 70
e 5 74
e 5 92
e 5 94
e 6 46
e 6 53
e 6 55
e 6 66
e 6 98
e 6 99
e 7 17
e 7 55
e 7 56
e 7 59
e 7 62
e 7 63
e 8 43
e 8 52
e 8 75
e 8 95
e 8 97
e 9 18
e 9 26
e 9 48
e 9 54
e 9 70
e 9 86
e 10 12
e 10 35
e 10 38
e 10 45
e 10 53
e 10 73
e 11 28
e 11 33
e 11 36
e 11 71
e 11 81
e 11 93
e 12 17
e 12 36
e 12 41
e 12 89
e 12 90
e 13 17
e 13 24
e 13 43
e 13 72
e 13 85
e 14 18
e 14 30
e 14 46
e 14 52
e 14 55
e 14 64
e 15 26
e 15 31
e 15 47
e 15 49
e 15 60
e 15 96
e 16 26
e 16 32
e 16 33
e 16 41
e 16 49
e 16 86
e 17 50
e 17 79
e 17 87
e 18 29
e 18 60
e 18 63
e 18 76
e 19 28
e 19 30
e 19 42
e 19 53
e 19 63
e 19 93
e 20 39
e 20 47
e 20 48
e 20 52
e 20 71
e 20 79
e 21 24
e 21 25
e 21 29
e 21 39
e 21 40
e 21 56
e 22 34
e 22 49
e 22 69
e 22 83
e 22 89
e 23 25
e 23 51
e 23 56
e 23 59
e 23 66
e 23 79
e 24 36
e 24 50
e 24 67
e 24 71
e 25 57
e 25 58
e 25 67
e 25 72
e 26 48
e 26 68
e 26 70
e 27 58
e 27 62
e 27 79
e 27 84
e 27 86
e 27 89
e 28 36
e 28 55
e 28 73
e 28 98
e 29 54
e 29 55
e 29 57
e 29 84
e 30 43
e 30 68
e 30 78
e 30 100
e 31 44
e 31 51
e 31 79
e 31 80
e 31 99
e 32 38
e 32 42
e 32 49
e 32 74
e 32 87
e 33 41
e 33 44
e 33 47
e 33 83
e 34 71
e 34 95
e 34 97
e 35 46
e 35 59
e 35 60
e 35 81
e 35 97
e 36 50
e 36 76
e 37 43
e 37 59
e 37 60
e 37 75
e 37 80
e 37 91
e 38 58
e 38 78
e 38 88
e 39 78
e 39 82
e 39 85
e 39 98
e 40 62
e 40 69
e 40 71
e 40 83
e 40 100
e 41 65
e 41 81
e 41 94
e 42 60
e 42 78
e 42 88
e 43 51
e 43 54
e 44 58
e 44 59
e 44 75
e 45 52
e 45 81
e 45 82
e 45 83
e 46 50
e 46 70
e 46 89
e 47 64
e 47 68
e 47 70
e 48 69
e 48 86
e 48 92
e 49 80
e 49 94
e 50 64
e 50 77
e 51 60
e 51 90
e 51 97
e 52 59
e 52 81
e 53 76
e 53 85
e 53 92
e 54 66
e 54 69
e 54 74
e 55 69
e 56 64
e 56 89
e 56 95
e 57 72
e 57 75
e 57 88
e 57 95
e 58 61
e 58 65
e 61 74
e 61 76
e 61 79
e 61 80
e 61 93
e 62 67
e 62 68
e 62 85
e 63 73
e 63 76
e 63 91
e 64 98
e 65 68
e 65 72
e 65 92
e 65 98
e 66 72
e 66 94
e 66 99
e 67 70
e 67 96
e 67 99
e 68 100
e 69 77
e 71 86
e 72 90
e 73 84
e 73 90
e 73 94
e 74 81
e 75 80
e 75 84
e 76 78
e 77 78
e 77 82
e 77 88
e 80 100
e 82 87
e 82 93
e 83 91
e 83 94
e 85 92
e 86 96
e 87 93
e 88 96
e 88 99
e 90 93
e 90 95
e 91 96
e 91 98
e 91 100
e 95 99
e 97 100
n 2 1
n 3 1
n 4 2
n 5 2
n 7 3
n 12 3
n 17 3
n 20 1
n 21 5
n 24 5
n 26 1
n 27 1
n 28 4
n 30 2
n 32 4
n 43 2
n 45 1
n 46 3
n 49 4
n 51 2
n 52 1
n 54 2
n 57 5
n 58 1
n 60 2
n 61 1
n 64 3
n 66 2
n 67 5
n 73 4
n 75 5
n 78 2
n 81 1
n 82 1
n 83 1
n 86 1
n 88 5
n 92 2
n 95 5
n 100 2
